Route #1: 50 23 100
Route #2: 8 80
Route #3: 58 12
Route #4: 34 17 64 3 40
Route #5: 88 59 67
Route #6: 60 28 82 57 72
Route #7: 63 14 77
Route #8: 25 39 18
Route #9: 65 10 42
Route #10: 78 6 49 2
Route #11: 37 7 45 43 29 36
Route #12: 4 87 48 26 47
Route #13: 38 96 94 56
Route #14: 44 66 70
Route #15: 54 92 9
Route #16: 84 86 68 1
Route #17: 76 55 69 16
Route #18: 13 74 90
Route #19: 61 19 97
Route #20: 91 52
Route #21: 83 51 71
Route #22: 89 98 62 99 81
Route #23: 21 27 79
Route #24: 75 30 85 11 32
Route #25: 24 35 20
Route #26: 22 41 15 5
Route #27: 46 31 95 33
Route #28: 93 53 73
Cost 35874
